# Solution for model r10_t27_m4_6 Batch Number: 1
# Finished Task: 26 / 27
# Makespan: 707.0, Total Distance: 234.0, Total Time: 63.1142
# R O S F Batch
0 0 28 0.0 0.0 -1
1 1 11 0.0 0.0 -1
2 2 15 0.0 0.0 -1
3 3 21 0.0 0.0 -1
4 4 35 0.0 0.0 -1
5 5 14 0.0 0.0 -1
6 6 19 0.0 0.0 -1
7 7 25 0.0 0.0 -1
8 8 31 0.0 0.0 -1
9 9 -1 0.0 0.0 -1
10 6 -1 393.0 418.0 0
11 1 34 644.0 672.0 0
12 2 -1 682.0 707.0 0
13 5 -1 667.0 695.0 0
14 5 24 111.0 133.0 0
15 2 16 481.0 518.0 0
16 2 36 577.0 610.0 0
17 3 26 622.0 644.0 0
18 -1 -1 -1.0 -1.0 0
19 6 10 362.0 385.0 0
20 3 33 547.0 571.0 0
21 3 20 518.0 547.0 0
22 0 -1 649.0 682.0 0
23 7 -1 682.0 707.0 0
24 5 13 303.0 329.0 0
25 7 27 532.0 567.0 0
26 3 -1 656.0 695.0 0
27 7 30 575.0 611.0 0
28 0 22 605.0 628.0 0
29 4 -1 679.0 707.0 0
30 7 32 621.0 643.0 0
31 8 -1 551.0 577.0 0
32 7 23 651.0 673.0 0
33 3 17 571.0 598.0 0
34 1 -1 682.0 707.0 0
35 4 29 457.0 479.0 0
36 2 12 610.0 639.0 0
